25 50
1 2 2
1 6 2
2 3 1
2 7 1
3 4 5
3 8 1
4 5 4
4 9 1
5 10 3
6 7 3
6 11 3
7 8 3
7 12 1
8 9 5
8 13 4
9 10 4
9 14 2
10 15 1
11 12 3
11 16 5
12 13 3
12 17 4
13 14 2
13 18 4
14 15 4
14 19 3
15 20 3
16 17 2
16 21 3
17 18 1
17 22 4
18 19 1
18 23 1
19 20 3
19 24 1
20 25 1
21 22 1
22 23 3
23 24 4
24 25 1
1 21 3
2 22 5
3 23 2
4 24 3
5 25 5
1 5 1
6 10 5
11 15 4
16 20 2
21 25 3
